(set-logic QF_S)
(declare-fun var0 () String)
(declare-fun var1 () String)
(declare-fun var2 () String)
(declare-fun var3 () String)
(assert (= (Concat "V$b" (Concat var0 (Concat var1 (Concat var2 var3)))) (Concat (Concat var0 (Concat var1 (Concat var2 var3))) "@:D")))
(check-sat)